40
402
10
39
1
91
22
90
50
62
39
59
32
0 3
0 4
0 5
0 7
0 9
0 11
0 13
0 15
0 16
0 18
0 19
0 20
0 21
0 22
0 26
0 27
0 28
0 33
0 38
0 39
1 3
1 5
1 8
1 9
1 10
1 12
1 13
1 14
1 15
1 16
1 18
1 20
1 21
1 22
1 25
1 29
1 31
1 32
1 34
1 35
1 36
2 4
2 8
2 9
2 10
2 11
2 13
2 19
2 20
2 24
2 25
2 29
2 31
2 34
2 38
2 39
3 7
3 10
3 11
3 12
3 13
3 15
3 17
3 20
3 23
3 26
3 30
3 31
3 32
3 34
3 35
3 36
3 37
3 38
4 5
4 10
4 14
4 15
4 17
4 20
4 21
4 23
4 25
4 31
4 32
4 33
4 35
4 36
4 39
5 6
5 7
5 8
5 10
5 12
5 14
5 15
5 16
5 17
5 19
5 23
5 29
5 30
5 31
5 32
5 36
6 7
6 8
6 9
6 10
6 11
6 12
6 16
6 17
6 18
6 20
6 21
6 23
6 24
6 27
6 30
6 31
6 33
6 39
7 9
7 10
7 12
7 13
7 14
7 16
7 17
7 18
7 19
7 20
7 21
7 23
7 25
7 27
7 29
7 30
7 31
7 32
7 34
7 35
7 36
7 38
7 39
8 9
8 11
8 12
8 13
8 16
8 18
8 19
8 24
8 25
8 29
8 30
8 32
8 33
8 36
8 37
9 10
9 11
9 12
9 13
9 14
9 21
9 23
9 26
9 27
9 28
9 31
9 32
9 33
9 35
10 13
10 14
10 17
10 18
10 19
10 22
10 27
10 28
10 29
10 31
10 33
10 34
10 37
10 39
11 12
11 13
11 17
11 18
11 19
11 23
11 26
11 27
11 28
11 32
11 35
11 37
12 13
12 15
12 16
12 17
12 18
12 19
12 21
12 22
12 23
12 26
12 29
12 30
12 35
12 38
13 17
13 18
13 20
13 21
13 22
13 23
13 24
13 30
13 32
13 33
13 35
13 37
13 39
14 18
14 19
14 23
14 24
14 25
14 26
14 30
14 32
14 33
14 34
14 39
15 16
15 17
15 20
15 23
15 26
15 27
15 28
15 32
15 38
15 39
16 17
16 18
16 20
16 23
16 27
16 29
16 30
16 32
16 33
16 35
16 37
17 18
17 24
17 26
17 27
17 28
17 29
17 37
17 39
18 22
18 23
18 25
18 28
18 30
18 33
18 38
19 20
19 21
19 22
19 23
19 24
19 25
19 27
19 29
19 31
19 32
20 21
20 26
20 28
20 30
20 31
20 32
20 35
20 37
20 38
20 39
21 23
21 24
21 25
21 28
21 29
21 30
21 32
21 33
21 35
21 36
21 37
22 23
22 28
22 29
22 30
22 32
22 33
22 34
22 39
23 27
23 28
23 29
23 33
23 35
23 36
23 38
24 26
24 27
24 28
24 29
24 31
24 32
24 33
24 35
24 37
24 38
24 39
25 27
25 29
25 30
25 31
25 33
25 34
25 35
25 38
25 39
26 27
26 28
26 29
26 30
26 31
26 32
26 33
26 36
26 37
26 39
27 28
27 33
27 34
27 35
27 37
28 29
28 30
28 31
28 32
28 34
28 35
28 37
28 38
29 31
29 32
29 33
29 34
29 35
29 36
29 37
29 38
29 39
30 31
30 32
30 35
30 36
30 38
31 32
31 34
31 35
31 36
31 37
31 38
31 39
32 33
32 36
32 38
32 39
33 34
33 35
33 38
33 39
34 36
34 37
34 38
35 37
35 38
36 38
36 39
37 38
38 39
27 28 1 23
11 31 0 5
7 26 24 6
21 34 22 37
30 32 20 3
16 10 13 39
8 35 9 38
29 14 25 4
15 36 12 17
18 19 2 33
